% number of games is 48
num = 48;
cap = 5;
refill = 2;
fun = [-5, 10, -5, -12, 15, 18, 7, 19, -7, 18, 8, 8, 8, -14, 13, 4, 8, -20, -4, 2, 16, -13, 20, 0, 6, 11, -11, 8, 20, -14, 5, -16, 18, 15, 1, 19, -5, -9, -8, 8, -8, -1, 20, 15, 4, -20, 14, 19];
